instances/p2/p2_10_8-0.dzn
Alphabet = {A,C,G,T};
ns = 10;
nc = 6;
neighbours = [| I(G),Null,Null,Null,Null,Null | I(T),I(G),I(C),I(C),I(A),I(G) | I(G),Null,Null,Null,Null,Null | I(A),I(C),I(G),I(C),I(A),I(A) | I(T),I(C),I(T),Null,Null,Null | I(C),I(T),I(A),I(C),Null,Null | I(A),Null,Null,Null,Null,Null | I(C),I(T),Null,Null,Null,Null | I(T),I(C),I(A),I(G),I(C),Null | I(T),Null,Null,Null,Null,Null |];
